100
32
3
18
31
2
18
8
18
21
3
25
30
9
24
10
6
11
9
17
2
2
4
1
3
2
2
1
2
1
1
1
21
2
1
4
4
18
2
16
2
1
4
3
1
2
2
1
1
2
1
7
3
1
18
2
2
3
2
3
1
1
1
3
21
17
1
4
2
1
1
5
1
2
18
1
1
1
1
17
1
1
5
7
1
1
3
2
2
1
4
1
1
1
1
2
1
17
1
1
5
3